20	5
0	5	3	5	2	1	4
1	2	16	19
2	4	12	16	17	18
3	3	6	18	9
4	3	13	8	16
5	3	16	12	13
6	1	16
7	3	17	18	20
8	3	15	14	7
9	1	15
10	3	20	17	19
11	2	17	12
12	2	19	20
13	1	9
14	2	11	10
15	1	10
16	1	21
17	1	21
18	1	21
19	1	21
20	1	21
21	0
0	0	0	0	0	0	0
1	6	4	1	2	2	5
2	6	3	5	2	4	5
3	2	4	3	3	2	5
4	3	2	5	2	4	2
5	1	2	4	1	4	4
6	5	2	2	1	5	4
7	5	3	2	2	2	3
8	9	1	5	1	1	2
9	4	4	2	2	5	4
10	3	5	2	3	2	1
11	5	5	4	5	3	2
12	8	3	3	2	4	2
13	10	2	3	4	3	4
14	4	4	5	4	4	2
15	4	4	4	2	1	1
16	6	5	5	1	3	3
17	1	4	2	2	3	5
18	10	5	2	5	4	2
19	2	3	5	1	3	5
20	9	1	5	3	3	2
21	0	0	0	0	0	0
5	5	5	5	5
